50
0 1 0.7 0.19
0 2 0.76 0.22
0 3 0.58 0.23
0 4 0.44 0.21
0 5 0.44 0.22
0 6 0.42 0.07
0 7 0.59 0.12
0 8 0.68 0.21
0 9 0.28 0.04
0 10 0.52 0.21
0 11 0.6 0.18
0 12 0.34 0.26
0 13 0.38 0.21
0 14 0.36 0.09
0 15 0.6 0.17
0 16 0.63 0.14
0 17 0.52 0.14
0 18 0.6 0.18
0 19 0.58 0.21
0 20 0.28 0.08
0 21 0.66 0.26
0 22 0.64 0.18
0 23 0.7 0.28
0 24 0.52 0.26
0 25 0.36 0.28
0 26 0.69 0.25
0 27 0.53 0.26
0 28 0.62 0.24
0 29 0.6 0.28
0 30 0.5 0.16
0 31 0.5 0.21
0 32 0.58 0.24
0 33 0.6 0.25
0 34 0.7 0.16
0 35 0.14 0.08
0 36 0.64 0.26
0 37 0.63 0.24
0 38 0.71 0.17
0 39 0.51 0.18
0 40 0.55 0.19
0 41 0.58 0.11
0 42 0.48 0.2
0 43 0.58 0.16
0 44 0.6 0.27
0 45 0.5 0.18
0 46 0.64 0.15
0 47 0.76 0.32
0 48 0.44 0.26
0 49 0.72 0.18
1 2 0.54 0.14
1 3 0.47 0.28
1 4 0.33 0.26
1 5 0.29 0.18
1 6 0.59 0.12
1 7 0.6 0.22
1 8 0.51 0.23
1 9 0.72 0.15
1 10 0.44 0.17
1 11 0.48 0.1
1 12 0.55 0.21
1 13 0.62 0.24
1 14 0.49 0.15
1 15 0.55 0.26
1 16 0.66 0.16
1 17 0.57 0.19
1 18 0.62 0.2
1 19 0.71 0.24
1 20 0.58 0.22
1 21 0.51 0.09
1 22 0.47 0.2
1 23 0.44 0.22
1 24 0.45 0.14
1 25 0.34 0.22
1 26 0.54 0.31
1 27 0.5 0.22
1 28 0.46 0.18
1 29 0.13 0.12
1 30 0.5 0.19
1 31 0.2 0.1
1 32 0.51 0.26
1 33 0.45 0.13
1 34 0.44 0.12
1 35 0.59 0.22
1 36 0.4 0.27
1 37 0.36 0.18
1 38 0.46 0.02
1 39 0.51 0.23
1 40 0.58 0.18
1 41 0.58 0.16
1 42 0.62 0.2
1 43 0.43 0.22
1 44 0.17 0.08
1 45 0.54 0.19
1 46 0.39 0.2
1 47 0.46 0.24
1 48 0.53 0.16
1 49 0.44 0.24
2 3 0.78 0.38
2 4 0.74 0.36
2 5 0.76 0.28
2 6 0.72 0.22
2 7 0.56 0.22
2 8 0.68 0.25
2 9 0.58 0.25
2 10 0.58 0.27
2 11 0.73 0.24
2 12 0.6 0.26
2 13 0.65 0.31
2 14 0.46 0.24
2 15 0.6 0.25
2 16 0.53 0.1
2 17 0.63 0.2
2 18 0.74 0.28
2 19 0.7 0.34
2 20 0.48 0.16
2 21 0.46 0.13
2 22 0.54 0.24
2 23 0.66 0.31
2 24 0.5 0.22
2 25 0.48 0.25
2 26 0.74 0.2
2 27 0.58 0.2
2 28 0.32 0.3
2 29 0.67 0.24
2 30 0.72 0.22
2 31 0.34 0.2
2 32 0.5 0.12
2 33 0.42 0.09
2 34 0.5 0.22
2 35 0.82 0.14
2 36 0.61 0.22
2 37 0.74 0.28
2 38 0.32 0.12
2 39 0.72 0.2
2 40 0.54 0.26
2 41 0.52 0.21
2 42 0.59 0.26
2 43 0.75 0.26
2 44 0.7 0.22
2 45 0.7 0.24
2 46 0.54 0.3
2 47 0.6 0.32
2 48 0.46 0.26
2 49 0.58 0.22
3 4 0.14 0.13
3 5 0.5 0.3
3 6 0.54 0.16
3 7 0.64 0.26
3 8 0.48 0.29
3 9 0.74 0.19
3 10 0.48 0.2
3 11 0.5 0.26
3 12 0.57 0.21
3 13 0.34 0.26
3 14 0.83 0.18
3 15 0.49 0.33
3 16 0.72 0.3
3 17 0.66 0.18
3 18 0.73 0.3
3 19 0.63 0.3
3 20 0.78 0.31
3 21 0.42 0.3
3 22 0.34 0.29
3 23 0.43 0.3
3 24 0.51 0.26
3 25 0.61 0.26
3 26 0.65 0.31
3 27 0.57 0.34
3 28 0.74 0.2
3 29 0.34 0.18
3 30 0.44 0.24
3 31 0.65 0.18
3 32 0.63 0.37
3 33 0.74 0.34
3 34 0.69 0.24
3 35 0.66 0.24
3 36 0.34 0.31
3 37 0.52 0.23
3 38 0.63 0.26
3 39 0.55 0.26
3 40 0.6 0.24
3 41 0.77 0.2
3 42 0.43 0.3
3 43 0.64 0.28
3 44 0.62 0.26
3 45 0.59 0.29
3 46 0.52 0.08
3 47 0.51 0.35
3 48 0.48 0.25
3 49 0.67 0.28
4 5 0.36 0.18
4 6 0.43 0.14
4 7 0.5 0.24
4 8 0.6 0.16
4 9 0.6 0.17
4 10 0.62 0.25
4 11 0.44 0.18
4 12 0.43 0.32
4 13 0.48 0.28
4 14 0.72 0.3
4 15 0.35 0.33
4 16 0.62 0.29
4 17 0.54 0.31
4 18 0.61 0.19
4 19 0.49 0.28
4 20 0.69 0.29
4 21 0.56 0.34
4 22 0.2 0.2
4 23 0.57 0.17
4 24 0.6 0.33
4 25 0.47 0.31
4 26 0.52 0.3
4 27 0.43 0.21
4 28 0.63 0.33
4 29 0.2 0.18
4 30 0.58 0.29
4 31 0.51 0.26
4 32 0.49 0.28
4 33 0.67 0.32
4 34 0.75 0.2
4 35 0.58 0.29
4 36 0.2 0.18
4 37 0.38 0.31
4 38 0.49 0.24
4 39 0.62 0.3
4 40 0.69 0.32
4 41 0.71 0.18
4 42 0.57 0.26
4 43 0.5 0.21
4 44 0.5 0.32
4 45 0.45 0.32
4 46 0.5 0.21
4 47 0.65 0.36
4 48 0.5 0.29
4 49 0.53 0.22
5 6 0.6 0.22
5 7 0.58 0.22
5 8 0.43 0.19
5 9 0.5 0.25
5 10 0.31 0.11
5 11 0.64 0.08
5 12 0.38 0.14
5 13 0.57 0.24
5 14 0.62 0.24
5 15 0.66 0.27
5 16 0.47 0.28
5 17 0.58 0.18
5 18 0.46 0.16
5 19 0.42 0.26
5 20 0.72 0.28
5 21 0.5 0.25
5 22 0.44 0.3
5 23 0.66 0.27
5 24 0.47 0.2
5 25 0.47 0.24
5 26 0.53 0.23
5 27 0.61 0.24
5 28 0.5 0.24
5 29 0.16 0.15
5 30 0.53 0.22
5 31 0.49 0.12
5 32 0.63 0.3
5 33 0.63 0.29
5 34 0.4 0.06
5 35 0.3 0.2
5 36 0.56 0.26
5 37 0.34 0.26
5 38 0.66 0.2
5 39 0.28 0.22
5 40 0.69 0.24
5 41 0.44 0.26
5 42 0.49 0.23
5 43 0.14 0.14
5 44 0.46 0.26
5 45 0.62 0.2
5 46 0.6 0.27
5 47 0.5 0.22
5 48 0.63 0.28
5 49 0.53 0.23
6 7 0.62 0.1
6 8 0.72 0.18
6 9 0.48 0.03
6 10 0.36 0.21
6 11 0.49 0.14
6 12 0.52 0.21
6 13 0.61 0.14
6 14 0.78 0.16
6 15 0.55 0.23
6 16 0.66 0.15
6 17 0.46 0.18
6 18 0.54 0.15
6 19 0.61 0.14
6 20 0.7 0.15
6 21 0.7 0.2
6 22 0.33 0.13
6 23 0.6 0.23
6 24 0.59 0.22
6 25 0.61 0.26
6 26 0.75 0.2
6 27 0.58 0.23
6 28 0.54 0.2
6 29 0.63 0.24
6 30 0.62 0.15
6 31 0.6 0.22
6 32 0.62 0.23
6 33 0.5 0.18
6 34 0.38 0.16
6 35 0.56 0.15
6 36 0.56 0.32
6 37 0.66 0.23
6 38 0.4 0.1
6 39 0.75 0.16
6 40 0.7 0.18
6 41 0.41 0.04
6 42 0.5 0.22
6 43 0.53 0.13
6 44 0.42 0.2
6 45 0.65 0.24
6 46 0.33 0.08
6 47 0.4 0.3
6 48 0.78 0.24
6 49 0.66 0.25
7 8 0.7 0.09
7 9 0.4 0.08
7 10 0.42 0.16
7 11 0.43 0.23
7 12 0.44 0.17
7 13 0.65 0.16
7 14 0.44 0.1
7 15 0.76 0.15
7 16 0.76 0.12
7 17 0.56 0.23
7 18 0.2 0.06
7 19 0.72 0.24
7 20 0.72 0.06
7 21 0.57 0.2
7 22 0.7 0.23
7 23 0.77 0.26
7 24 0.56 0.24
7 25 0.76 0.27
7 26 0.63 0.17
7 27 0.76 0.14
7 28 0.6 0.2
7 29 0.47 0.2
7 30 0.68 0.2
7 31 0.62 0.22
7 32 0.47 0.22
7 33 0.7 0.23
7 34 0.74 0.21
7 35 0.52 0.2
7 36 0.3 0.24
7 37 0.46 0.21
7 38 0.44 0.2
7 39 0.68 0.06
7 40 0.63 0.2
7 41 0.56 0.14
7 42 0.52 0.13
7 43 0.44 0.08
7 44 0.57 0.25
7 45 0.78 0.14
7 46 0.7 0.18
7 47 0.76 0.31
7 48 0.62 0.19
7 49 0.38 0.16
8 9 0.61 0.17
8 10 0.36 0.13
8 11 0.82 0.2
8 12 0.62 0.26
8 13 0.7 0.25
8 14 0.35 0.15
8 15 0.46 0.24
8 16 0.69 0.21
8 17 0.64 0.2
8 18 0.79 0.03
8 19 0.57 0.18
8 20 0.63 0.15
8 21 0.66 0.23
8 22 0.4 0.2
8 23 0.47 0.24
8 24 0.55 0.22
8 25 0.59 0.27
8 26 0.54 0.14
8 27 0.48 0.05
8 28 0.44 0.27
8 29 0.48 0.23
8 30 0.6 0.18
8 31 0.45 0.24
8 32 0.78 0.13
8 33 0.56 0.25
8 34 0.5 0.18
8 35 0.54 0.22
8 36 0.65 0.23
8 37 0.68 0.16
8 38 0.36 0.25
8 39 0.46 0.15
8 40 0.54 0.17
8 41 0.62 0.22
8 42 0.54 0.1
8 43 0.53 0.05
8 44 0.68 0.19
8 45 0.38 0.18
8 46 0.56 0.25
8 47 0.55 0.29
8 48 0.73 0.14
8 49 0.32 0.12
9 10 0.79 0.2
9 11 0.66 0.17
9 12 0.54 0.24
9 13 0.66 0.17
9 14 0.38 0.13
9 15 0.76 0.21
9 16 0.62 0.18
9 17 0.5 0.18
9 18 0.54 0.14
9 19 0.4 0.17
9 20 0.56 0.12
9 21 0.68 0.23
9 22 0.42 0.16
9 23 0.76 0.26
9 24 0.68 0.22
9 25 0.56 0.29
9 26 0.84 0.21
9 27 0.81 0.22
9 28 0.64 0.2
9 29 0.66 0.27
9 30 0.48 0.12
9 31 0.58 0.25
9 32 0.79 0.2
9 33 0.68 0.21
9 34 0.6 0.19
9 35 0.42 0.12
9 36 0.5 0.29
9 37 0.68 0.26
9 38 0.65 0.13
9 39 0.67 0.14
9 40 0.74 0.15
9 41 0.76 0.07
9 42 0.73 0.21
9 43 0.62 0.12
9 44 0.64 0.23
9 45 0.78 0.22
9 46 0.42 0.11
9 47 0.56 0.33
9 48 0.72 0.27
9 49 0.64 0.22
10 11 0.66 0.07
10 12 0.46 0.25
10 13 0.48 0.23
10 14 0.53 0.22
10 15 0.62 0.16
10 16 0.5 0.19
10 17 0.41 0.07
10 18 0.49 0.1
10 19 0.45 0.2
10 20 0.76 0.22
10 21 0.68 0.26
10 22 0.55 0.23
10 23 0.65 0.26
10 24 0.4 0.19
10 25 0.38 0.23
10 26 0.5 0.17
10 27 0.63 0.18
10 28 0.6 0.23
10 29 0.42 0.21
10 30 0.5 0.18
10 31 0.24 0.11
10 32 0.71 0.19
10 33 0.74 0.27
10 34 0.48 0.05
10 35 0.38 0.13
10 36 0.62 0.24
10 37 0.6 0.16
10 38 0.48 0.19
10 39 0.59 0.22
10 40 0.78 0.13
10 41 0.55 0.25
10 42 0.18 0.14
10 43 0.17 0.08
10 44 0.61 0.22
10 45 0.72 0.22
10 46 0.57 0.17
10 47 0.5 0.16
10 48 0.58 0.18
10 49 0.48 0.22
11 12 0.36 0.2
11 13 0.68 0.2
11 14 0.67 0.2
11 15 0.47 0.19
11 16 0.38 0.24
11 17 0.58 0.14
11 18 0.23 0.17
11 19 0.38 0.18
11 20 0.4 0.24
11 21 0.65 0.19
11 22 0.5 0.27
11 23 0.54 0.23
11 24 0.39 0.16
11 25 0.6 0.2
11 26 0.46 0.21
11 27 0.77 0.25
11 28 0.64 0.16
11 29 0.61 0.22
11 30 0.46 0.14
11 31 0.46 0.08
11 32 0.61 0.26
11 33 0.64 0.23
11 34 0.32 0.02
11 35 0.72 0.2
11 36 0.34 0.18
11 37 0.38 0.23
11 38 0.5 0.12
11 39 0.4 0.23
11 40 0.6 0.2
11 41 0.69 0.18
11 42 0.55 0.21
11 43 0.55 0.15
11 44 0.57 0.18
11 45 0.57 0.25
11 46 0.5 0.22
11 47 0.58 0.18
11 48 0.65 0.24
11 49 0.68 0.22
12 13 0.56 0.18
12 14 0.56 0.23
12 15 0.56 0.31
12 16 0.53 0.26
12 17 0.48 0.23
12 18 0.4 0.23
12 19 0.66 0.3
12 20 0.62 0.22
12 21 0.5 0.3
12 22 0.63 0.34
12 23 0.64 0.22
12 24 0.5 0.19
12 25 0.7 0.31
12 26 0.38 0.3
12 27 0.54 0.22
12 28 0.28 0.16
12 29 0.54 0.29
12 30 0.44 0.34
12 31 0.56 0.26
12 32 0.25 0.19
12 33 0.66 0.34
12 34 0.68 0.2
12 35 0.48 0.29
12 36 0.63 0.29
12 37 0.53 0.28
12 38 0.69 0.23
12 39 0.47 0.23
12 40 0.54 0.29
12 41 0.56 0.25
12 42 0.64 0.3
12 43 0.52 0.25
12 44 0.38 0.26
12 45 0.66 0.25
12 46 0.5 0.13
12 47 0.69 0.14
12 48 0.52 0.27
12 49 0.76 0.22
13 14 0.64 0.26
13 15 0.64 0.3
13 16 0.38 0.21
13 17 0.58 0.28
13 18 0.81 0.22
13 19 0.42 0.12
13 20 0.59 0.22
13 21 0.42 0.28
13 22 0.68 0.27
13 23 0.62 0.29
13 24 0.59 0.22
13 25 0.62 0.26
13 26 0.31 0.26
13 27 0.67 0.26
13 28 0.46 0.17
13 29 0.68 0.36
13 30 0.52 0.27
13 31 0.7 0.14
13 32 0.59 0.34
13 33 0.74 0.24
13 34 0.82 0.18
13 35 0.52 0.29
13 36 0.64 0.36
13 37 0.65 0.32
13 38 0.4 0.24
13 39 0.73 0.22
13 40 0.44 0.31
13 41 0.7 0.1
13 42 0.54 0.28
13 43 0.64 0.24
13 44 0.56 0.27
13 45 0.54 0.26
13 46 0.34 0.18
13 47 0.74 0.32
13 48 0.48 0.3
13 49 0.46 0.28
14 15 0.67 0.25
14 16 0.68 0.22
14 17 0.66 0.2
14 18 0.44 0.12
14 19 0.72 0.3
14 20 0.28 0.16
14 21 0.66 0.23
14 22 0.6 0.27
14 23 0.5 0.3
14 24 0.57 0.2
14 25 0.43 0.24
14 26 0.64 0.23
14 27 0.68 0.2
14 28 0.62 0.22
14 29 0.62 0.26
14 30 0.68 0.25
14 31 0.29 0.12
14 32 0.75 0.28
14 33 0.38 0.22
14 34 0.53 0.18
14 35 0.5 0.17
14 36 0.6 0.34
14 37 0.52 0.21
14 38 0.38 0.13
14 39 0.66 0.16
14 40 0.46 0.24
14 41 0.59 0.2
14 42 0.71 0.19
14 43 0.7 0.14
14 44 0.46 0.23
14 45 0.65 0.24
14 46 0.48 0.1
14 47 0.55 0.23
14 48 0.38 0.19
14 49 0.53 0.26
15 16 0.61 0.15
15 17 0.63 0.23
15 18 0.7 0.21
15 19 0.78 0.31
15 20 0.47 0.09
15 21 0.46 0.24
15 22 0.55 0.26
15 23 0.42 0.29
15 24 0.38 0.24
15 25 0.52 0.23
15 26 0.7 0.31
15 27 0.44 0.29
15 28 0.28 0.19
15 29 0.55 0.24
15 30 0.82 0.29
15 31 0.38 0.16
15 32 0.81 0.35
15 33 0.46 0.2
15 34 0.41 0.21
15 35 0.46 0.2
15 36 0.46 0.27
15 37 0.56 0.32
15 38 0.57 0.28
15 39 0.62 0.21
15 40 0.54 0.29
15 41 0.66 0.26
15 42 0.76 0.18
15 43 0.74 0.23
15 44 0.54 0.21
15 45 0.1 0.1
15 46 0.5 0.28
15 47 0.46 0.2
15 48 0.64 0.32
15 49 0.43 0.12
16 17 0.2 0.12
16 18 0.56 0.18
16 19 0.48 0.28
16 20 0.6 0.06
16 21 0.64 0.15
16 22 0.76 0.28
16 23 0.58 0.26
16 24 0.45 0.12
16 25 0.58 0.15
16 26 0.69 0.25
16 27 0.73 0.25
16 28 0.6 0.25
16 29 0.58 0.26
16 30 0.44 0.2
16 31 0.57 0.16
16 32 0.7 0.22
16 33 0.52 0.11
16 34 0.52 0.22
16 35 0.49 0.18
16 36 0.5 0.21
16 37 0.68 0.22
16 38 0.33 0.14
16 39 0.38 0.18
16 40 0.46 0.18
16 41 0.32 0.11
16 42 0.43 0.24
16 43 0.33 0.16
16 44 0.58 0.24
16 45 0.51 0.16
16 46 0.59 0.22
16 47 0.5 0.22
16 48 0.46 0.2
16 49 0.63 0.16
17 18 0.36 0.17
17 19 0.68 0.27
17 20 0.75 0.18
17 21 0.46 0.24
17 22 0.68 0.16
17 23 0.58 0.32
17 24 0.25 0.18
17 25 0.51 0.27
17 26 0.54 0.24
17 27 0.76 0.25
17 28 0.46 0.22
17 29 0.68 0.14
17 30 0.32 0.18
17 31 0.37 0.18
17 32 0.56 0.26
17 33 0.48 0.2
17 34 0.32 0.12
17 35 0.59 0.06
17 36 0.64 0.3
17 37 0.48 0.14
17 38 0.44 0.17
17 39 0.3 0.2
17 40 0.45 0.06
17 41 0.52 0.22
17 42 0.23 0.12
17 43 0.5 0.15
17 44 0.53 0.27
17 45 0.7 0.16
17 46 0.68 0.1
17 47 0.41 0.23
17 48 0.61 0.16
17 49 0.43 0.28
18 19 0.6 0.21
18 20 0.63 0.12
18 21 0.42 0.2
18 22 0.51 0.23
18 23 0.62 0.27
18 24 0.61 0.25
18 25 0.64 0.24
18 26 0.52 0.11
18 27 0.65 0.08
18 28 0.48 0.24
18 29 0.54 0.2
18 30 0.48 0.15
18 31 0.62 0.21
18 32 0.65 0.16
18 33 0.74 0.24
18 34 0.55 0.15
18 35 0.6 0.19
18 36 0.5 0.26
18 37 0.26 0.19
18 38 0.43 0.22
18 39 0.6 0.12
18 40 0.74 0.14
18 41 0.6 0.19
18 42 0.32 0.07
18 43 0.32 0.02
18 44 0.73 0.22
18 45 0.76 0.15
18 46 0.6 0.22
18 47 0.77 0.26
18 48 0.42 0.17
18 49 0.56 0.15
19 20 0.46 0.22
19 21 0.56 0.32
19 22 0.52 0.27
19 23 0.36 0.18
19 24 0.48 0.28
19 25 0.42 0.34
19 26 0.46 0.18
19 27 0.5 0.2
19 28 0.54 0.19
19 29 0.58 0.36
19 30 0.67 0.29
19 31 0.56 0.26
19 32 0.65 0.28
19 33 0.66 0.32
19 34 0.62 0.2
19 35 0.72 0.29
19 36 0.67 0.36
19 37 0.76 0.22
19 38 0.38 0.22
19 39 0.7 0.22
19 40 0.68 0.32
19 41 0.74 0.18
19 42 0.63 0.28
19 43 0.28 0.22
19 44 0.58 0.29
19 45 0.82 0.28
19 46 0.64 0.22
19 47 0.72 0.36
19 48 0.52 0.2
19 49 0.54 0.3
20 21 0.43 0.18
20 22 0.54 0.24
20 23 0.63 0.2
20 24 0.63 0.18
20 25 0.64 0.21
20 26 0.86 0.22
20 27 0.71 0.2
20 28 0.57 0.26
20 29 0.71 0.26
20 30 0.43 0.24
20 31 0.57 0.16
20 32 0.57 0.28
20 33 0.66 0.17
20 34 0.7 0.22
20 35 0.42 0.16
20 36 0.54 0.18
20 37 0.78 0.24
20 38 0.44 0.2
20 39 0.46 0.12
20 40 0.61 0.24
20 41 0.73 0.17
20 42 0.65 0.19
20 43 0.74 0.14
20 44 0.62 0.3
20 45 0.57 0.19
20 46 0.7 0.23
20 47 0.68 0.28
20 48 0.66 0.25
20 49 0.44 0.1
21 22 0.68 0.2
21 23 0.2 0.18
21 24 0.67 0.22
21 25 0.53 0.3
21 26 0.56 0.31
21 27 0.44 0.28
21 28 0.74 0.27
21 29 0.64 0.21
21 30 0.52 0.16
21 31 0.67 0.19
21 32 0.72 0.25
21 33 0.32 0.04
21 34 0.46 0.21
21 35 0.72 0.27
21 36 0.5 0.33
21 37 0.44 0.26
21 38 0.48 0.1
21 39 0.76 0.14
21 40 0.56 0.27
21 41 0.63 0.18
21 42 0.52 0.21
21 43 0.51 0.22
21 44 0.6 0.17
21 45 0.36 0.28
21 46 0.66 0.28
21 47 0.65 0.33
21 48 0.66 0.24
21 49 0.49 0.17
22 23 0.77 0.36
22 24 0.62 0.28
22 25 0.45 0.32
22 26 0.58 0.33
22 27 0.63 0.22
22 28 0.6 0.29
22 29 0.4 0.24
22 30 0.78 0.28
22 31 0.31 0.2
22 32 0.56 0.3
22 33 0.65 0.24
22 34 0.55 0.26
22 35 0.7 0.1
22 36 0.4 0.24
22 37 0.53 0.3
22 38 0.43 0.18
22 39 0.52 0.28
22 40 0.8 0.22
22 41 0.51 0.17
22 42 0.62 0.22
22 43 0.58 0.25
22 44 0.64 0.28
22 45 0.65 0.2
22 46 0.66 0.21
22 47 0.57 0.25
22 48 0.62 0.32
22 49 0.33 0.14
23 24 0.66 0.16
23 25 0.64 0.3
23 26 0.65 0.35
23 27 0.56 0.29
23 28 0.7 0.35
23 29 0.52 0.34
23 30 0.46 0.31
23 31 0.5 0.18
23 32 0.52 0.37
23 33 0.47 0.22
23 34 0.26 0.21
23 35 0.8 0.26
23 36 0.64 0.35
23 37 0.57 0.26
23 38 0.68 0.24
23 39 0.7 0.32
23 40 0.45 0.32
23 41 0.43 0.19
23 42 0.65 0.34
23 43 0.52 0.26
23 44 0.61 0.3
23 45 0.52 0.26
23 46 0.74 0.31
23 47 0.74 0.36
23 48 0.78 0.24
23 49 0.62 0.3
24 25 0.68 0.14
24 26 0.55 0.33
24 27 0.53 0.22
24 28 0.66 0.28
24 29 0.55 0.26
24 30 0.57 0.21
24 31 0.61 0.08
24 32 0.62 0.3
24 33 0.56 0.23
24 34 0.4 0.14
24 35 0.52 0.24
24 36 0.4 0.3
24 37 0.61 0.1
24 38 0.19 0.12
24 39 0.47 0.28
24 40 0.65 0.24
24 41 0.66 0.23
24 42 0.48 0.3
24 43 0.57 0.27
24 44 0.28 0.22
24 45 0.48 0.28
24 46 0.45 0.25
24 47 0.35 0.24
24 48 0.6 0.08
24 49 0.61 0.22
25 26 0.67 0.31
25 27 0.53 0.32
25 28 0.5 0.3
25 29 0.47 0.34
25 30 0.46 0.25
25 31 0.14 0.12
25 32 0.53 0.28
25 33 0.5 0.26
25 34 0.38 0.18
25 35 0.5 0.33
25 36 0.49 0.18
25 37 0.42 0.24
25 38 0.49 0.24
25 39 0.7 0.33
25 40 0.41 0.3
25 41 0.64 0.26
25 42 0.56 0.26
25 43 0.33 0.22
25 44 0.5 0.3
25 45 0.42 0.29
25 46 0.28 0.18
25 47 0.4 0.34
25 48 0.34 0.22
25 49 0.38 0.26
26 27 0.63 0.19
26 28 0.42 0.19
26 29 0.67 0.27
26 30 0.44 0.22
26 31 0.63 0.25
26 32 0.63 0.27
26 33 0.6 0.29
26 34 0.78 0.19
26 35 0.62 0.3
26 36 0.72 0.37
26 37 0.78 0.3
26 38 0.68 0.3
26 39 0.71 0.23
26 40 0.68 0.25
26 41 0.58 0.16
26 42 0.55 0.18
26 43 0.45 0.09
26 44 0.37 0.23
26 45 0.7 0.26
26 46 0.42 0.28
26 47 0.6 0.33
26 48 0.73 0.28
26 49 0.55 0.23
27 28 0.62 0.24
27 29 0.48 0.28
27 30 0.62 0.23
27 31 0.39 0.29
27 32 0.7 0.08
27 33 0.62 0.25
27 34 0.48 0.23
27 35 0.67 0.27
27 36 0.63 0.18
27 37 0.57 0.16
27 38 0.6 0.24
27 39 0.72 0.2
27 40 0.46 0.22
27 41 0.6 0.27
27 42 0.7 0.15
27 43 0.47 0.1
27 44 0.42 0.14
27 45 0.54 0.23
27 46 0.4 0.28
27 47 0.37 0.29
27 48 0.46 0.14
27 49 0.59 0.17
28 29 0.59 0.23
28 30 0.58 0.29
28 31 0.52 0.24
28 32 0.53 0.32
28 33 0.55 0.3
28 34 0.69 0.18
28 35 0.67 0.19
28 36 0.7 0.29
28 37 0.6 0.27
28 38 0.48 0.2
28 39 0.67 0.26
28 40 0.26 0.18
28 41 0.69 0.24
28 42 0.69 0.17
28 43 0.64 0.26
28 44 0.44 0.1
28 45 0.38 0.09
28 46 0.22 0.12
28 47 0.56 0.26
28 48 0.59 0.29
28 49 0.48 0.24
29 30 0.63 0.31
29 31 0.33 0.22
29 32 0.64 0.26
29 33 0.47 0.25
29 34 0.56 0.21
29 35 0.46 0.2
29 36 0.4 0.16
29 37 0.49 0.28
29 38 0.59 0.14
29 39 0.44 0.26
29 40 0.71 0.2
29 41 0.58 0.28
29 42 0.6 0.22
29 43 0.3 0.18
29 44 0.3 0.2
29 45 0.6 0.14
29 46 0.52 0.24
29 47 0.46 0.31
29 48 0.66 0.28
29 49 0.54 0.18
30 31 0.58 0.13
30 32 0.66 0.27
30 33 0.64 0.2
30 34 0.59 0.16
30 35 0.62 0.24
30 36 0.52 0.17
30 37 0.54 0.25
30 38 0.62 0.21
30 39 0.62 0.24
30 40 0.77 0.24
30 41 0.52 0.19
30 42 0.55 0.22
30 43 0.39 0.13
30 44 0.58 0.27
30 45 0.76 0.2
30 46 0.36 0.23
30 47 0.66 0.32
30 48 0.77 0.23
30 49 0.75 0.27
31 32 0.67 0.3
31 33 0.56 0.23
31 34 0.24 0.06
31 35 0.62 0.24
31 36 0.38 0.22
31 37 0.56 0.18
31 38 0.63 0.12
31 39 0.61 0.28
31 40 0.55 0.24
31 41 0.5 0.24
31 42 0.42 0.25
31 43 0.41 0.19
31 44 0.37 0.18
31 45 0.48 0.26
31 46 0.42 0.22
31 47 0.26 0.22
31 48 0.34 0.16
31 49 0.24 0.14
32 33 0.62 0.21
32 34 0.47 0.24
32 35 0.44 0.26
32 36 0.69 0.1
32 37 0.72 0.24
32 38 0.72 0.24
32 39 0.45 0.28
32 40 0.79 0.3
32 41 0.38 0.26
32 42 0.79 0.23
32 43 0.66 0.18
32 44 0.34 0.22
32 45 0.78 0.3
32 46 0.56 0.29
32 47 0.65 0.33
32 48 0.7 0.22
32 49 0.54 0.25
33 34 0.64 0.25
33 35 0.72 0.23
33 36 0.78 0.31
33 37 0.71 0.3
33 38 0.49 0.14
33 39 0.62 0.18
33 40 0.54 0.26
33 41 0.61 0.14
33 42 0.71 0.25
33 43 0.77 0.26
33 44 0.28 0.2
33 45 0.56 0.27
33 46 0.5 0.26
33 47 0.59 0.33
33 48 0.64 0.28
33 49 0.32 0.13
34 35 0.68 0.18
34 36 0.62 0.2
34 37 0.53 0.21
34 38 0.59 0.14
34 39 0.62 0.25
34 40 0.46 0.18
34 41 0.69 0.2
34 42 0.39 0.19
34 43 0.54 0.13
34 44 0.56 0.2
34 45 0.51 0.26
34 46 0.58 0.22
34 47 0.5 0.16
34 48 0.58 0.22
34 49 0.36 0.2
35 36 0.76 0.3
35 37 0.64 0.2
35 38 0.6 0.2
35 39 0.38 0.18
35 40 0.41 0.12
35 41 0.72 0.19
35 42 0.36 0.12
35 43 0.44 0.21
35 44 0.56 0.21
35 45 0.36 0.1
35 46 0.56 0.16
35 47 0.66 0.27
35 48 0.58 0.22
35 49 0.69 0.24
36 37 0.5 0.28
36 38 0.29 0.25
36 39 0.42 0.22
36 40 0.53 0.27
36 41 0.7 0.32
36 42 0.77 0.28
36 43 0.6 0.28
36 44 0.57 0.31
36 45 0.56 0.2
36 46 0.48 0.24
36 47 0.56 0.36
36 48 0.48 0.3
36 49 0.62 0.28
37 38 0.42 0.16
37 39 0.44 0.22
37 40 0.8 0.2
37 41 0.56 0.27
37 42 0.42 0.26
37 43 0.48 0.21
37 44 0.53 0.22
37 45 0.66 0.3
37 46 0.68 0.15
37 47 0.79 0.32
37 48 0.68 0.02
37 49 0.58 0.28
38 39 0.44 0.24
38 40 0.74 0.2
38 41 0.54 0.14
38 42 0.61 0.18
38 43 0.65 0.23
38 44 0.47 0.1
38 45 0.67 0.21
38 46 0.26 0.18
38 47 0.54 0.26
38 48 0.44 0.14
38 49 0.68 0.26
39 40 0.41 0.26
39 41 0.7 0.2
39 42 0.53 0.19
39 43 0.42 0.14
39 44 0.34 0.28
39 45 0.52 0.2
39 46 0.52 0.18
39 47 0.35 0.32
39 48 0.44 0.2
39 49 0.56 0.22
40 41 0.54 0.22
40 42 0.6 0.18
40 43 0.74 0.16
40 44 0.54 0.26
40 45 0.52 0.22
40 46 0.48 0.16
40 47 0.3 0.24
40 48 0.36 0.22
40 49 0.48 0.29
41 42 0.69 0.22
41 43 0.54 0.17
41 44 0.62 0.24
41 45 0.56 0.27
41 46 0.74 0.12
41 47 0.64 0.33
41 48 0.54 0.28
41 49 0.74 0.27
42 43 0.35 0.09
42 44 0.58 0.19
42 45 0.66 0.08
42 46 0.52 0.22
42 47 0.64 0.25
42 48 0.54 0.24
42 49 0.66 0.22
43 44 0.5 0.24
43 45 0.64 0.17
43 46 0.61 0.21
43 47 0.51 0.24
43 48 0.67 0.19
43 49 0.65 0.14
44 45 0.48 0.11
44 46 0.22 0.18
44 47 0.31 0.16
44 48 0.36 0.2
44 49 0.6 0.31
45 46 0.55 0.21
45 47 0.36 0.17
45 48 0.69 0.31
45 49 0.53 0.22
46 47 0.53 0.27
46 48 0.48 0.17
46 49 0.44 0.2
47 48 0.6 0.32
47 49 0.5 0.28
48 49 0.58 0.26
